(set-info :smt-lib-version 2.6)
(set-info :category "crafted")
(set-logic QF_FFA)
(define-sort FF0 () (_ FiniteField 52435875175126190479447740508185965837690552500527637822603658699938581184513))
(declare-fun return_n17_alt () FF0)
(declare-fun x17_n11_alt () FF0)
(declare-fun mul_n34_alt () FF0)
(declare-fun x16_n3_alt () FF0)
(declare-fun mul_n33_alt () FF0)
(declare-fun x15_n15_alt () FF0)
(declare-fun mul_n32_alt () FF0)
(declare-fun x14_n6_alt () FF0)
(declare-fun mul_n31_alt () FF0)
(declare-fun x13_n8_alt () FF0)
(declare-fun mul_n30_alt () FF0)
(declare-fun x12_n0_alt () FF0)
(declare-fun mul_n29_alt () FF0)
(declare-fun x11_n12_alt () FF0)
(declare-fun mul_n28_alt () FF0)
(declare-fun x10_n4_alt () FF0)
(declare-fun mul_n27_alt () FF0)
(declare-fun mul_n26_alt () FF0)
(declare-fun x8_n1_alt () FF0)
(declare-fun mul_n25_alt () FF0)
(declare-fun x7_n14_alt () FF0)
(declare-fun mul_n24_alt () FF0)
(declare-fun x6_n16_alt () FF0)
(declare-fun mul_n23_alt () FF0)
(declare-fun x5_n10_alt () FF0)
(declare-fun mul_n22_alt () FF0)
(declare-fun x4_n2_alt () FF0)
(declare-fun mul_n21_alt () FF0)
(declare-fun x3_n7_alt () FF0)
(declare-fun mul_n20_alt () FF0)
(declare-fun x2_n18_alt () FF0)
(declare-fun mul_n19_alt () FF0)
(declare-fun x1_n13_alt () FF0)
(declare-fun x0_n5_alt () FF0)
(declare-fun return_n17 () FF0)
(declare-fun x17_n11 () FF0)
(declare-fun mul_n34 () FF0)
(declare-fun x16_n3 () FF0)
(declare-fun mul_n33 () FF0)
(declare-fun x15_n15 () FF0)
(declare-fun mul_n32 () FF0)
(declare-fun x14_n6 () FF0)
(declare-fun mul_n31 () FF0)
(declare-fun x13_n8 () FF0)
(declare-fun mul_n30 () FF0)
(declare-fun x12_n0 () FF0)
(declare-fun mul_n29 () FF0)
(declare-fun x11_n12 () FF0)
(declare-fun mul_n28 () FF0)
(declare-fun x10_n4 () FF0)
(declare-fun mul_n27 () FF0)
(declare-fun mul_n26 () FF0)
(declare-fun x8_n1 () FF0)
(declare-fun mul_n25 () FF0)
(declare-fun x7_n14 () FF0)
(declare-fun mul_n24 () FF0)
(declare-fun x6_n16 () FF0)
(declare-fun mul_n23 () FF0)
(declare-fun x5_n10 () FF0)
(declare-fun mul_n22 () FF0)
(declare-fun x4_n2 () FF0)
(declare-fun mul_n21 () FF0)
(declare-fun x3_n7 () FF0)
(declare-fun mul_n20 () FF0)
(declare-fun x2_n18 () FF0)
(declare-fun mul_n19 () FF0)
(declare-fun x1_n13 () FF0)
(declare-fun x0_n5 () FF0)
(declare-fun x9_n9_alt () FF0)
(declare-fun x9_n9 () FF0)
(assert 
  (let ((let0 return_n17_alt))
  (let ((let1 x17_n11_alt))
  (let ((let2 mul_n34_alt))
  (let ((let3 (ff.mul let2 let1)))
  (let ((let4 (= let3 let0)))
  (let ((let5 x16_n3_alt))
  (let ((let6 mul_n33_alt))
  (let ((let7 (ff.mul let6 let5)))
  (let ((let8 (= let7 let2)))
  (let ((let9 x15_n15_alt))
  (let ((let10 mul_n32_alt))
  (let ((let11 (ff.mul let10 let9)))
  (let ((let12 (= let11 let6)))
  (let ((let13 x14_n6_alt))
  (let ((let14 mul_n31_alt))
  (let ((let15 (ff.mul let14 let13)))
  (let ((let16 (= let15 let10)))
  (let ((let17 x13_n8_alt))
  (let ((let18 mul_n30_alt))
  (let ((let19 (ff.mul let18 let17)))
  (let ((let20 (= let19 let14)))
  (let ((let21 x12_n0_alt))
  (let ((let22 mul_n29_alt))
  (let ((let23 (ff.mul let22 let21)))
  (let ((let24 (= let23 let18)))
  (let ((let25 x11_n12_alt))
  (let ((let26 mul_n28_alt))
  (let ((let27 (ff.mul let26 let25)))
  (let ((let28 (= let27 let22)))
  (let ((let29 x10_n4_alt))
  (let ((let30 mul_n27_alt))
  (let ((let31 (ff.mul let30 let29)))
  (let ((let32 (= let31 let26)))
  (let ((let33 mul_n26_alt))
  (let ((let34 x8_n1_alt))
  (let ((let35 mul_n25_alt))
  (let ((let36 (ff.mul let35 let34)))
  (let ((let37 (= let36 let33)))
  (let ((let38 x7_n14_alt))
  (let ((let39 mul_n24_alt))
  (let ((let40 (ff.mul let39 let38)))
  (let ((let41 (= let40 let35)))
  (let ((let42 x6_n16_alt))
  (let ((let43 mul_n23_alt))
  (let ((let44 (ff.mul let43 let42)))
  (let ((let45 (= let44 let39)))
  (let ((let46 x5_n10_alt))
  (let ((let47 mul_n22_alt))
  (let ((let48 (ff.mul let47 let46)))
  (let ((let49 (= let48 let43)))
  (let ((let50 x4_n2_alt))
  (let ((let51 mul_n21_alt))
  (let ((let52 (ff.mul let51 let50)))
  (let ((let53 (= let52 let47)))
  (let ((let54 x3_n7_alt))
  (let ((let55 mul_n20_alt))
  (let ((let56 (ff.mul let55 let54)))
  (let ((let57 (= let56 let51)))
  (let ((let58 x2_n18_alt))
  (let ((let59 mul_n19_alt))
  (let ((let60 (ff.mul let59 let58)))
  (let ((let61 (= let60 let55)))
  (let ((let62 x1_n13_alt))
  (let ((let63 x0_n5_alt))
  (let ((let64 (ff.mul let63 let62)))
  (let ((let65 (= let64 let59)))
  (let ((let66 (and let65 let61 let57 let53 let49 let45 let41 let37 let32 let28 let24 let20 let16 let12 let8 let4)))
  (let ((let67 return_n17))
  (let ((let68 x17_n11))
  (let ((let69 mul_n34))
  (let ((let70 (ff.mul let69 let68)))
  (let ((let71 (= let70 let67)))
  (let ((let72 x16_n3))
  (let ((let73 mul_n33))
  (let ((let74 (ff.mul let73 let72)))
  (let ((let75 (= let74 let69)))
  (let ((let76 x15_n15))
  (let ((let77 mul_n32))
  (let ((let78 (ff.mul let77 let76)))
  (let ((let79 (= let78 let73)))
  (let ((let80 x14_n6))
  (let ((let81 mul_n31))
  (let ((let82 (ff.mul let81 let80)))
  (let ((let83 (= let82 let77)))
  (let ((let84 x13_n8))
  (let ((let85 mul_n30))
  (let ((let86 (ff.mul let85 let84)))
  (let ((let87 (= let86 let81)))
  (let ((let88 x12_n0))
  (let ((let89 mul_n29))
  (let ((let90 (ff.mul let89 let88)))
  (let ((let91 (= let90 let85)))
  (let ((let92 x11_n12))
  (let ((let93 mul_n28))
  (let ((let94 (ff.mul let93 let92)))
  (let ((let95 (= let94 let89)))
  (let ((let96 x10_n4))
  (let ((let97 mul_n27))
  (let ((let98 (ff.mul let97 let96)))
  (let ((let99 (= let98 let93)))
  (let ((let100 mul_n26))
  (let ((let101 x8_n1))
  (let ((let102 mul_n25))
  (let ((let103 (ff.mul let102 let101)))
  (let ((let104 (= let103 let100)))
  (let ((let105 x7_n14))
  (let ((let106 mul_n24))
  (let ((let107 (ff.mul let106 let105)))
  (let ((let108 (= let107 let102)))
  (let ((let109 x6_n16))
  (let ((let110 mul_n23))
  (let ((let111 (ff.mul let110 let109)))
  (let ((let112 (= let111 let106)))
  (let ((let113 x5_n10))
  (let ((let114 mul_n22))
  (let ((let115 (ff.mul let114 let113)))
  (let ((let116 (= let115 let110)))
  (let ((let117 x4_n2))
  (let ((let118 mul_n21))
  (let ((let119 (ff.mul let118 let117)))
  (let ((let120 (= let119 let114)))
  (let ((let121 x3_n7))
  (let ((let122 mul_n20))
  (let ((let123 (ff.mul let122 let121)))
  (let ((let124 (= let123 let118)))
  (let ((let125 x2_n18))
  (let ((let126 mul_n19))
  (let ((let127 (ff.mul let126 let125)))
  (let ((let128 (= let127 let122)))
  (let ((let129 x1_n13))
  (let ((let130 x0_n5))
  (let ((let131 (ff.mul let130 let129)))
  (let ((let132 (= let131 let126)))
  (let ((let133 (and let132 let128 let124 let120 let116 let112 let108 let104 let99 let95 let91 let87 let83 let79 let75 let71)))
  (let ((let134 (= let67 let0)))
  (let ((let135 (not let134)))
  (let ((let136 (= let121 let54)))
  (let ((let137 (= let96 let29)))
  (let ((let138 (= let109 let42)))
  (let ((let139 (= let80 let13)))
  (let ((let140 (= let117 let50)))
  (let ((let141 (= let92 let25)))
  (let ((let142 (= let125 let58)))
  (let ((let143 (= let84 let17)))
  (let ((let144 (= let129 let62)))
  (let ((let145 (= let105 let38)))
  (let ((let146 (= let130 let63)))
  (let ((let147 (= let76 let9)))
  (let ((let148 x9_n9_alt))
  (let ((let149 x9_n9))
  (let ((let150 (= let149 let148)))
  (let ((let151 (= let72 let5)))
  (let ((let152 (= let88 let21)))
  (let ((let153 (= let68 let1)))
  (let ((let154 (= let113 let46)))
  (let ((let155 (= let101 let34)))
  (let ((let156 (and let155 let154 let153 let152 let151 let150 let147 let146 let145 let144 let143 let142 let141 let140 let139 let138 let137 let136)))
  (let ((let157 (and let156 let135 let133 let66)))
  let157
))))))))))))))))))))))))))))))))))))))))))))))))))))))))))))))))))))))))))))))))))))))))))))))))))))))))))))))))))))))))))))))))))))))))))))))))))))))))))))))
)
(check-sat)
